%chk=test001
#p test hf geom=modela opt
symm=saveOrientation

test

0  1
c oh h h me

--link1--
%chk=test001
#p test geom=allcheck guess=read chkmth chkbas freq output=mat
symm=saveOrientation

test001.mat

