%chk=test003
#p test hf opt

test

-1  1
o
h  1  1.0

--link1--
%chk=test003
#p test geom=allcheck guess=read chkmth chkbas freq output=mat

test003.mat

