%chk=test003
#p test hf opt
symm=saveOrientation

test

-1  1
o
h  1  1.0

--link1--
%chk=test003
!%subst l716 l716
#p test geom=allcheck guess=read chkmth chkbas freq output=mat
symm=saveOrientation

test003.mat

